c *********************************
c * Circuit generated by BenCGen
c *
c * CarryLookaheadBlock_45_45_45_InOutT
c *
c * Ports with 1 gate(s): 2
c * Ports with 2 gate(s): 193
c * Ports with 3 gate(s): 44
c * Ports with 4 gate(s): 33
c * Ports with 5 gate(s): 22
c * Total gates: 294
c *********************************
p cnf 384 1146
1 138 0
-1 -138 0
1 -137 0
138 -137 0
-1 -138 137 0
1 46 -139 0
-1 46 139 0
1 -46 139 0
-1 -46 -139 0
1 -184 0
46 -184 0
-1 -46 184 0
2 47 -140 0
-2 47 140 0
2 -47 140 0
-2 -47 -140 0
2 -185 0
47 -185 0
-2 -47 185 0
3 48 -141 0
-3 48 141 0
3 -48 141 0
-3 -48 -141 0
3 -186 0
48 -186 0
-3 -48 186 0
4 49 -142 0
-4 49 142 0
4 -49 142 0
-4 -49 -142 0
4 -187 0
49 -187 0
-4 -49 187 0
5 50 -143 0
-5 50 143 0
5 -50 143 0
-5 -50 -143 0
5 -188 0
50 -188 0
-5 -50 188 0
6 51 -144 0
-6 51 144 0
6 -51 144 0
-6 -51 -144 0
6 -189 0
51 -189 0
-6 -51 189 0
7 52 -145 0
-7 52 145 0
7 -52 145 0
-7 -52 -145 0
7 -190 0
52 -190 0
-7 -52 190 0
8 53 -146 0
-8 53 146 0
8 -53 146 0
-8 -53 -146 0
8 -191 0
53 -191 0
-8 -53 191 0
9 54 -147 0
-9 54 147 0
9 -54 147 0
-9 -54 -147 0
9 -192 0
54 -192 0
-9 -54 192 0
10 55 -148 0
-10 55 148 0
10 -55 148 0
-10 -55 -148 0
10 -193 0
55 -193 0
-10 -55 193 0
11 56 -149 0
-11 56 149 0
11 -56 149 0
-11 -56 -149 0
11 -194 0
56 -194 0
-11 -56 194 0
12 57 -150 0
-12 57 150 0
12 -57 150 0
-12 -57 -150 0
12 -195 0
57 -195 0
-12 -57 195 0
13 58 -151 0
-13 58 151 0
13 -58 151 0
-13 -58 -151 0
13 -196 0
58 -196 0
-13 -58 196 0
14 59 -152 0
-14 59 152 0
14 -59 152 0
-14 -59 -152 0
14 -197 0
59 -197 0
-14 -59 197 0
15 60 -153 0
-15 60 153 0
15 -60 153 0
-15 -60 -153 0
15 -198 0
60 -198 0
-15 -60 198 0
16 61 -154 0
-16 61 154 0
16 -61 154 0
-16 -61 -154 0
16 -199 0
61 -199 0
-16 -61 199 0
17 62 -155 0
-17 62 155 0
17 -62 155 0
-17 -62 -155 0
17 -200 0
62 -200 0
-17 -62 200 0
18 63 -156 0
-18 63 156 0
18 -63 156 0
-18 -63 -156 0
18 -201 0
63 -201 0
-18 -63 201 0
19 64 -157 0
-19 64 157 0
19 -64 157 0
-19 -64 -157 0
19 -202 0
64 -202 0
-19 -64 202 0
20 65 -158 0
-20 65 158 0
20 -65 158 0
-20 -65 -158 0
20 -203 0
65 -203 0
-20 -65 203 0
21 66 -159 0
-21 66 159 0
21 -66 159 0
-21 -66 -159 0
21 -204 0
66 -204 0
-21 -66 204 0
22 67 -160 0
-22 67 160 0
22 -67 160 0
-22 -67 -160 0
22 -205 0
67 -205 0
-22 -67 205 0
23 68 -161 0
-23 68 161 0
23 -68 161 0
-23 -68 -161 0
23 -206 0
68 -206 0
-23 -68 206 0
24 69 -162 0
-24 69 162 0
24 -69 162 0
-24 -69 -162 0
24 -207 0
69 -207 0
-24 -69 207 0
25 70 -163 0
-25 70 163 0
25 -70 163 0
-25 -70 -163 0
25 -208 0
70 -208 0
-25 -70 208 0
26 71 -164 0
-26 71 164 0
26 -71 164 0
-26 -71 -164 0
26 -209 0
71 -209 0
-26 -71 209 0
27 72 -165 0
-27 72 165 0
27 -72 165 0
-27 -72 -165 0
27 -210 0
72 -210 0
-27 -72 210 0
28 73 -166 0
-28 73 166 0
28 -73 166 0
-28 -73 -166 0
28 -211 0
73 -211 0
-28 -73 211 0
29 74 -167 0
-29 74 167 0
29 -74 167 0
-29 -74 -167 0
29 -212 0
74 -212 0
-29 -74 212 0
30 75 -168 0
-30 75 168 0
30 -75 168 0
-30 -75 -168 0
30 -213 0
75 -213 0
-30 -75 213 0
31 76 -169 0
-31 76 169 0
31 -76 169 0
-31 -76 -169 0
31 -214 0
76 -214 0
-31 -76 214 0
32 77 -170 0
-32 77 170 0
32 -77 170 0
-32 -77 -170 0
32 -215 0
77 -215 0
-32 -77 215 0
33 78 -171 0
-33 78 171 0
33 -78 171 0
-33 -78 -171 0
33 -216 0
78 -216 0
-33 -78 216 0
34 79 -172 0
-34 79 172 0
34 -79 172 0
-34 -79 -172 0
34 -217 0
79 -217 0
-34 -79 217 0
35 80 -173 0
-35 80 173 0
35 -80 173 0
-35 -80 -173 0
35 -218 0
80 -218 0
-35 -80 218 0
36 81 -174 0
-36 81 174 0
36 -81 174 0
-36 -81 -174 0
36 -219 0
81 -219 0
-36 -81 219 0
37 82 -175 0
-37 82 175 0
37 -82 175 0
-37 -82 -175 0
37 -220 0
82 -220 0
-37 -82 220 0
38 83 -176 0
-38 83 176 0
38 -83 176 0
-38 -83 -176 0
38 -221 0
83 -221 0
-38 -83 221 0
39 84 -177 0
-39 84 177 0
39 -84 177 0
-39 -84 -177 0
39 -222 0
84 -222 0
-39 -84 222 0
40 85 -178 0
-40 85 178 0
40 -85 178 0
-40 -85 -178 0
40 -223 0
85 -223 0
-40 -85 223 0
41 86 -179 0
-41 86 179 0
41 -86 179 0
-41 -86 -179 0
41 -224 0
86 -224 0
-41 -86 224 0
42 87 -180 0
-42 87 180 0
42 -87 180 0
-42 -87 -180 0
42 -225 0
87 -225 0
-42 -87 225 0
43 88 -181 0
-43 88 181 0
43 -88 181 0
-43 -88 -181 0
43 -226 0
88 -226 0
-43 -88 226 0
44 89 -182 0
-44 89 182 0
44 -89 182 0
-44 -89 -182 0
44 -227 0
89 -227 0
-44 -89 227 0
45 90 -183 0
-45 90 183 0
45 -90 183 0
-45 -90 -183 0
45 -228 0
90 -228 0
-45 -90 228 0
137 -274 0
139 -274 0
-137 -139 274 0
137 -275 0
139 -275 0
140 -275 0
-137 -139 -140 275 0
184 -276 0
140 -276 0
-184 -140 276 0
137 -277 0
139 -277 0
140 -277 0
141 -277 0
-137 -139 -140 -141 277 0
184 -278 0
140 -278 0
141 -278 0
-184 -140 -141 278 0
185 -279 0
141 -279 0
-185 -141 279 0
137 -280 0
139 -280 0
140 -280 0
141 -280 0
142 -280 0
-137 -139 -140 -141 -142 280 0
184 -281 0
140 -281 0
141 -281 0
142 -281 0
-184 -140 -141 -142 281 0
185 -282 0
141 -282 0
142 -282 0
-185 -141 -142 282 0
186 -283 0
142 -283 0
-186 -142 283 0
-184 229 0
-274 229 0
184 274 -229 0
-185 230 0
-275 230 0
-276 230 0
185 275 276 -230 0
-186 231 0
-277 231 0
-278 231 0
-279 231 0
186 277 278 279 -231 0
-187 232 0
-280 232 0
-281 232 0
-282 232 0
-283 232 0
187 280 281 282 283 -232 0
232 -284 0
143 -284 0
-232 -143 284 0
232 -285 0
143 -285 0
144 -285 0
-232 -143 -144 285 0
188 -286 0
144 -286 0
-188 -144 286 0
232 -287 0
143 -287 0
144 -287 0
145 -287 0
-232 -143 -144 -145 287 0
188 -288 0
144 -288 0
145 -288 0
-188 -144 -145 288 0
189 -289 0
145 -289 0
-189 -145 289 0
232 -290 0
143 -290 0
144 -290 0
145 -290 0
146 -290 0
-232 -143 -144 -145 -146 290 0
188 -291 0
144 -291 0
145 -291 0
146 -291 0
-188 -144 -145 -146 291 0
189 -292 0
145 -292 0
146 -292 0
-189 -145 -146 292 0
190 -293 0
146 -293 0
-190 -146 293 0
-188 233 0
-284 233 0
188 284 -233 0
-189 234 0
-285 234 0
-286 234 0
189 285 286 -234 0
-190 235 0
-287 235 0
-288 235 0
-289 235 0
190 287 288 289 -235 0
-191 236 0
-290 236 0
-291 236 0
-292 236 0
-293 236 0
191 290 291 292 293 -236 0
236 -294 0
147 -294 0
-236 -147 294 0
236 -295 0
147 -295 0
148 -295 0
-236 -147 -148 295 0
192 -296 0
148 -296 0
-192 -148 296 0
236 -297 0
147 -297 0
148 -297 0
149 -297 0
-236 -147 -148 -149 297 0
192 -298 0
148 -298 0
149 -298 0
-192 -148 -149 298 0
193 -299 0
149 -299 0
-193 -149 299 0
236 -300 0
147 -300 0
148 -300 0
149 -300 0
150 -300 0
-236 -147 -148 -149 -150 300 0
192 -301 0
148 -301 0
149 -301 0
150 -301 0
-192 -148 -149 -150 301 0
193 -302 0
149 -302 0
150 -302 0
-193 -149 -150 302 0
194 -303 0
150 -303 0
-194 -150 303 0
-192 237 0
-294 237 0
192 294 -237 0
-193 238 0
-295 238 0
-296 238 0
193 295 296 -238 0
-194 239 0
-297 239 0
-298 239 0
-299 239 0
194 297 298 299 -239 0
-195 240 0
-300 240 0
-301 240 0
-302 240 0
-303 240 0
195 300 301 302 303 -240 0
240 -304 0
151 -304 0
-240 -151 304 0
240 -305 0
151 -305 0
152 -305 0
-240 -151 -152 305 0
196 -306 0
152 -306 0
-196 -152 306 0
240 -307 0
151 -307 0
152 -307 0
153 -307 0
-240 -151 -152 -153 307 0
196 -308 0
152 -308 0
153 -308 0
-196 -152 -153 308 0
197 -309 0
153 -309 0
-197 -153 309 0
240 -310 0
151 -310 0
152 -310 0
153 -310 0
154 -310 0
-240 -151 -152 -153 -154 310 0
196 -311 0
152 -311 0
153 -311 0
154 -311 0
-196 -152 -153 -154 311 0
197 -312 0
153 -312 0
154 -312 0
-197 -153 -154 312 0
198 -313 0
154 -313 0
-198 -154 313 0
-196 241 0
-304 241 0
196 304 -241 0
-197 242 0
-305 242 0
-306 242 0
197 305 306 -242 0
-198 243 0
-307 243 0
-308 243 0
-309 243 0
198 307 308 309 -243 0
-199 244 0
-310 244 0
-311 244 0
-312 244 0
-313 244 0
199 310 311 312 313 -244 0
244 -314 0
155 -314 0
-244 -155 314 0
244 -315 0
155 -315 0
156 -315 0
-244 -155 -156 315 0
200 -316 0
156 -316 0
-200 -156 316 0
244 -317 0
155 -317 0
156 -317 0
157 -317 0
-244 -155 -156 -157 317 0
200 -318 0
156 -318 0
157 -318 0
-200 -156 -157 318 0
201 -319 0
157 -319 0
-201 -157 319 0
244 -320 0
155 -320 0
156 -320 0
157 -320 0
158 -320 0
-244 -155 -156 -157 -158 320 0
200 -321 0
156 -321 0
157 -321 0
158 -321 0
-200 -156 -157 -158 321 0
201 -322 0
157 -322 0
158 -322 0
-201 -157 -158 322 0
202 -323 0
158 -323 0
-202 -158 323 0
-200 245 0
-314 245 0
200 314 -245 0
-201 246 0
-315 246 0
-316 246 0
201 315 316 -246 0
-202 247 0
-317 247 0
-318 247 0
-319 247 0
202 317 318 319 -247 0
-203 248 0
-320 248 0
-321 248 0
-322 248 0
-323 248 0
203 320 321 322 323 -248 0
248 -324 0
159 -324 0
-248 -159 324 0
248 -325 0
159 -325 0
160 -325 0
-248 -159 -160 325 0
204 -326 0
160 -326 0
-204 -160 326 0
248 -327 0
159 -327 0
160 -327 0
161 -327 0
-248 -159 -160 -161 327 0
204 -328 0
160 -328 0
161 -328 0
-204 -160 -161 328 0
205 -329 0
161 -329 0
-205 -161 329 0
248 -330 0
159 -330 0
160 -330 0
161 -330 0
162 -330 0
-248 -159 -160 -161 -162 330 0
204 -331 0
160 -331 0
161 -331 0
162 -331 0
-204 -160 -161 -162 331 0
205 -332 0
161 -332 0
162 -332 0
-205 -161 -162 332 0
206 -333 0
162 -333 0
-206 -162 333 0
-204 249 0
-324 249 0
204 324 -249 0
-205 250 0
-325 250 0
-326 250 0
205 325 326 -250 0
-206 251 0
-327 251 0
-328 251 0
-329 251 0
206 327 328 329 -251 0
-207 252 0
-330 252 0
-331 252 0
-332 252 0
-333 252 0
207 330 331 332 333 -252 0
252 -334 0
163 -334 0
-252 -163 334 0
252 -335 0
163 -335 0
164 -335 0
-252 -163 -164 335 0
208 -336 0
164 -336 0
-208 -164 336 0
252 -337 0
163 -337 0
164 -337 0
165 -337 0
-252 -163 -164 -165 337 0
208 -338 0
164 -338 0
165 -338 0
-208 -164 -165 338 0
209 -339 0
165 -339 0
-209 -165 339 0
252 -340 0
163 -340 0
164 -340 0
165 -340 0
166 -340 0
-252 -163 -164 -165 -166 340 0
208 -341 0
164 -341 0
165 -341 0
166 -341 0
-208 -164 -165 -166 341 0
209 -342 0
165 -342 0
166 -342 0
-209 -165 -166 342 0
210 -343 0
166 -343 0
-210 -166 343 0
-208 253 0
-334 253 0
208 334 -253 0
-209 254 0
-335 254 0
-336 254 0
209 335 336 -254 0
-210 255 0
-337 255 0
-338 255 0
-339 255 0
210 337 338 339 -255 0
-211 256 0
-340 256 0
-341 256 0
-342 256 0
-343 256 0
211 340 341 342 343 -256 0
256 -344 0
167 -344 0
-256 -167 344 0
256 -345 0
167 -345 0
168 -345 0
-256 -167 -168 345 0
212 -346 0
168 -346 0
-212 -168 346 0
256 -347 0
167 -347 0
168 -347 0
169 -347 0
-256 -167 -168 -169 347 0
212 -348 0
168 -348 0
169 -348 0
-212 -168 -169 348 0
213 -349 0
169 -349 0
-213 -169 349 0
256 -350 0
167 -350 0
168 -350 0
169 -350 0
170 -350 0
-256 -167 -168 -169 -170 350 0
212 -351 0
168 -351 0
169 -351 0
170 -351 0
-212 -168 -169 -170 351 0
213 -352 0
169 -352 0
170 -352 0
-213 -169 -170 352 0
214 -353 0
170 -353 0
-214 -170 353 0
-212 257 0
-344 257 0
212 344 -257 0
-213 258 0
-345 258 0
-346 258 0
213 345 346 -258 0
-214 259 0
-347 259 0
-348 259 0
-349 259 0
214 347 348 349 -259 0
-215 260 0
-350 260 0
-351 260 0
-352 260 0
-353 260 0
215 350 351 352 353 -260 0
260 -354 0
171 -354 0
-260 -171 354 0
260 -355 0
171 -355 0
172 -355 0
-260 -171 -172 355 0
216 -356 0
172 -356 0
-216 -172 356 0
260 -357 0
171 -357 0
172 -357 0
173 -357 0
-260 -171 -172 -173 357 0
216 -358 0
172 -358 0
173 -358 0
-216 -172 -173 358 0
217 -359 0
173 -359 0
-217 -173 359 0
260 -360 0
171 -360 0
172 -360 0
173 -360 0
174 -360 0
-260 -171 -172 -173 -174 360 0
216 -361 0
172 -361 0
173 -361 0
174 -361 0
-216 -172 -173 -174 361 0
217 -362 0
173 -362 0
174 -362 0
-217 -173 -174 362 0
218 -363 0
174 -363 0
-218 -174 363 0
-216 261 0
-354 261 0
216 354 -261 0
-217 262 0
-355 262 0
-356 262 0
217 355 356 -262 0
-218 263 0
-357 263 0
-358 263 0
-359 263 0
218 357 358 359 -263 0
-219 264 0
-360 264 0
-361 264 0
-362 264 0
-363 264 0
219 360 361 362 363 -264 0
264 -364 0
175 -364 0
-264 -175 364 0
264 -365 0
175 -365 0
176 -365 0
-264 -175 -176 365 0
220 -366 0
176 -366 0
-220 -176 366 0
264 -367 0
175 -367 0
176 -367 0
177 -367 0
-264 -175 -176 -177 367 0
220 -368 0
176 -368 0
177 -368 0
-220 -176 -177 368 0
221 -369 0
177 -369 0
-221 -177 369 0
264 -370 0
175 -370 0
176 -370 0
177 -370 0
178 -370 0
-264 -175 -176 -177 -178 370 0
220 -371 0
176 -371 0
177 -371 0
178 -371 0
-220 -176 -177 -178 371 0
221 -372 0
177 -372 0
178 -372 0
-221 -177 -178 372 0
222 -373 0
178 -373 0
-222 -178 373 0
-220 265 0
-364 265 0
220 364 -265 0
-221 266 0
-365 266 0
-366 266 0
221 365 366 -266 0
-222 267 0
-367 267 0
-368 267 0
-369 267 0
222 367 368 369 -267 0
-223 268 0
-370 268 0
-371 268 0
-372 268 0
-373 268 0
223 370 371 372 373 -268 0
268 -374 0
179 -374 0
-268 -179 374 0
268 -375 0
179 -375 0
180 -375 0
-268 -179 -180 375 0
224 -376 0
180 -376 0
-224 -180 376 0
268 -377 0
179 -377 0
180 -377 0
181 -377 0
-268 -179 -180 -181 377 0
224 -378 0
180 -378 0
181 -378 0
-224 -180 -181 378 0
225 -379 0
181 -379 0
-225 -181 379 0
268 -380 0
179 -380 0
180 -380 0
181 -380 0
182 -380 0
-268 -179 -180 -181 -182 380 0
224 -381 0
180 -381 0
181 -381 0
182 -381 0
-224 -180 -181 -182 381 0
225 -382 0
181 -382 0
182 -382 0
-225 -181 -182 382 0
226 -383 0
182 -383 0
-226 -182 383 0
-224 269 0
-374 269 0
224 374 -269 0
-225 270 0
-375 270 0
-376 270 0
225 375 376 -270 0
-226 271 0
-377 271 0
-378 271 0
-379 271 0
226 377 378 379 -271 0
-227 272 0
-380 272 0
-381 272 0
-382 272 0
-383 272 0
227 380 381 382 383 -272 0
272 -384 0
183 -384 0
-272 -183 384 0
-228 273 0
-384 273 0
228 384 -273 0
139 137 -91 0
-139 137 91 0
139 -137 91 0
-139 -137 -91 0
140 229 -92 0
-140 229 92 0
140 -229 92 0
-140 -229 -92 0
141 230 -93 0
-141 230 93 0
141 -230 93 0
-141 -230 -93 0
142 231 -94 0
-142 231 94 0
142 -231 94 0
-142 -231 -94 0
143 232 -95 0
-143 232 95 0
143 -232 95 0
-143 -232 -95 0
144 233 -96 0
-144 233 96 0
144 -233 96 0
-144 -233 -96 0
145 234 -97 0
-145 234 97 0
145 -234 97 0
-145 -234 -97 0
146 235 -98 0
-146 235 98 0
146 -235 98 0
-146 -235 -98 0
147 236 -99 0
-147 236 99 0
147 -236 99 0
-147 -236 -99 0
148 237 -100 0
-148 237 100 0
148 -237 100 0
-148 -237 -100 0
149 238 -101 0
-149 238 101 0
149 -238 101 0
-149 -238 -101 0
150 239 -102 0
-150 239 102 0
150 -239 102 0
-150 -239 -102 0
151 240 -103 0
-151 240 103 0
151 -240 103 0
-151 -240 -103 0
152 241 -104 0
-152 241 104 0
152 -241 104 0
-152 -241 -104 0
153 242 -105 0
-153 242 105 0
153 -242 105 0
-153 -242 -105 0
154 243 -106 0
-154 243 106 0
154 -243 106 0
-154 -243 -106 0
155 244 -107 0
-155 244 107 0
155 -244 107 0
-155 -244 -107 0
156 245 -108 0
-156 245 108 0
156 -245 108 0
-156 -245 -108 0
157 246 -109 0
-157 246 109 0
157 -246 109 0
-157 -246 -109 0
158 247 -110 0
-158 247 110 0
158 -247 110 0
-158 -247 -110 0
159 248 -111 0
-159 248 111 0
159 -248 111 0
-159 -248 -111 0
160 249 -112 0
-160 249 112 0
160 -249 112 0
-160 -249 -112 0
161 250 -113 0
-161 250 113 0
161 -250 113 0
-161 -250 -113 0
162 251 -114 0
-162 251 114 0
162 -251 114 0
-162 -251 -114 0
163 252 -115 0
-163 252 115 0
163 -252 115 0
-163 -252 -115 0
164 253 -116 0
-164 253 116 0
164 -253 116 0
-164 -253 -116 0
165 254 -117 0
-165 254 117 0
165 -254 117 0
-165 -254 -117 0
166 255 -118 0
-166 255 118 0
166 -255 118 0
-166 -255 -118 0
167 256 -119 0
-167 256 119 0
167 -256 119 0
-167 -256 -119 0
168 257 -120 0
-168 257 120 0
168 -257 120 0
-168 -257 -120 0
169 258 -121 0
-169 258 121 0
169 -258 121 0
-169 -258 -121 0
170 259 -122 0
-170 259 122 0
170 -259 122 0
-170 -259 -122 0
171 260 -123 0
-171 260 123 0
171 -260 123 0
-171 -260 -123 0
172 261 -124 0
-172 261 124 0
172 -261 124 0
-172 -261 -124 0
173 262 -125 0
-173 262 125 0
173 -262 125 0
-173 -262 -125 0
174 263 -126 0
-174 263 126 0
174 -263 126 0
-174 -263 -126 0
175 264 -127 0
-175 264 127 0
175 -264 127 0
-175 -264 -127 0
176 265 -128 0
-176 265 128 0
176 -265 128 0
-176 -265 -128 0
177 266 -129 0
-177 266 129 0
177 -266 129 0
-177 -266 -129 0
178 267 -130 0
-178 267 130 0
178 -267 130 0
-178 -267 -130 0
179 268 -131 0
-179 268 131 0
179 -268 131 0
-179 -268 -131 0
180 269 -132 0
-180 269 132 0
180 -269 132 0
-180 -269 -132 0
181 270 -133 0
-181 270 133 0
181 -270 133 0
-181 -270 -133 0
182 271 -134 0
-182 271 134 0
182 -271 134 0
-182 -271 -134 0
183 272 -135 0
-183 272 135 0
183 -272 135 0
-183 -272 -135 0
273 -136 0
-273 136 0
